NAME          ClpDefau  FREE
ROWS
 N  OBJROW
 L  ZMUNI1_PCT
 L  ZMUNI2_PCT
 L  ZMUNI3_PCT
 L  ZMUNI4_PCT
 L  ZMUNI5_PCT
 L  ZMUNI6_PCT
 L  ZMUNI7_PCT
 L  ZMUNI8_PCT
 L  ZMUNI9_PCT
COLUMNS
    QMUNI1 OBJROW 1.          
    QMUNI1 ZMUNI1_PCT 30521.2021  
    QMUNI1 ZMUNI2_PCT 1936.1496   
    QMUNI1 ZMUNI3_PCT 4417.6102   
    QMUNI1 ZMUNI4_PCT 3587.7228   
    QMUNI1 ZMUNI5_PCT 164.7949    
    QMUNI1 ZMUNI6_PCT 353.4317    
    QMUNI1 ZMUNI7_PCT 2419.281    
    QMUNI1 ZMUNI8_PCT 1788.7116   
    QMUNI1 ZMUNI9_PCT 892.6392    
    QMUNI2 OBJROW 1.          
    QMUNI2 ZMUNI1_PCT 1997.1848   
    QMUNI2 ZMUNI2_PCT 37164.4974  
    QMUNI2 ZMUNI3_PCT 2839.4699   
    QMUNI2 ZMUNI4_PCT 3286.3617   
    QMUNI2 ZMUNI5_PCT 261.8789    
    QMUNI2 ZMUNI6_PCT 312.2329    
    QMUNI2 ZMUNI7_PCT 1613.6169   
    QMUNI2 ZMUNI8_PCT 1780.7007   
    QMUNI2 ZMUNI9_PCT 2083.2062   
    QMUNI3 OBJROW 1.          
    QMUNI3 ZMUNI1_PCT 4347.8012   
    QMUNI3 ZMUNI2_PCT 2814.8651   
    QMUNI3 ZMUNI3_PCT 32110.5957  
    QMUNI3 ZMUNI4_PCT 5802.1546   
    QMUNI3 ZMUNI5_PCT 250.2441    
    QMUNI3 ZMUNI6_PCT 374.2218    
    QMUNI3 ZMUNI7_PCT 2356.3385   
    QMUNI3 ZMUNI8_PCT 2045.4407   
    QMUNI3 ZMUNI9_PCT 1419.8304   
    QMUNI4 OBJROW 1.          
    QMUNI4 ZMUNI1_PCT 3320.8847   
    QMUNI4 ZMUNI2_PCT 3101.7304   
    QMUNI4 ZMUNI3_PCT 5548.2864   
    QMUNI4 ZMUNI4_PCT 126312.4466 
    QMUNI4 ZMUNI5_PCT 22.6974     
    QMUNI4 ZMUNI6_PCT 135.6125    
    QMUNI4 ZMUNI7_PCT 1585.7696   
    QMUNI4 ZMUNI8_PCT 1394.2719   
    QMUNI4 ZMUNI9_PCT 812.5305    
    QMUNI5 OBJROW 1.          
    QMUNI5 ZMUNI1_PCT 99.7544     
    QMUNI5 ZMUNI2_PCT 23.8419     
    QMUNI5 ZMUNI3_PCT 68.6646     
    QMUNI5 ZMUNI4_PCT 53.4058     
    QMUNI5 ZMUNI5_PCT 40574.4552  
    QMUNI5 ZMUNI6_PCT 2430.9158   
    QMUNI5 ZMUNI7_PCT 31.6619     
    QMUNI5 ZMUNI8_PCT  -28.9917   
    QMUNI5 ZMUNI9_PCT  -16.7846   
    QMUNI6 OBJROW 1.          
    QMUNI6 ZMUNI1_PCT 215.7212    
    QMUNI6 ZMUNI2_PCT  -8.0108    
    QMUNI6 ZMUNI3_PCT 118.6371    
    QMUNI6 ZMUNI4_PCT 42.3432     
    QMUNI6 ZMUNI5_PCT 3028.1067   
    QMUNI6 ZMUNI6_PCT 35008.8119  
    QMUNI6 ZMUNI7_PCT 413.1317    
    QMUNI6 ZMUNI8_PCT 120.9259    
    QMUNI6 ZMUNI9_PCT  -65.2313   
    QMUNI7 OBJROW 1.          
    QMUNI7 ZMUNI1_PCT 1485.2524   
    QMUNI7 ZMUNI2_PCT 850.2961    
    QMUNI7 ZMUNI3_PCT 1288.0325   
    QMUNI7 ZMUNI4_PCT 1062.7747   
    QMUNI7 ZMUNI5_PCT 189.7812    
    QMUNI7 ZMUNI6_PCT 423.0499    
    QMUNI7 ZMUNI7_PCT 40455.2459  
    QMUNI7 ZMUNI8_PCT 2947.2351   
    QMUNI7 ZMUNI9_PCT 1189.8041   
    QMUNI8 OBJROW 1.          
    QMUNI8 ZMUNI1_PCT 992.9657    
    QMUNI8 ZMUNI2_PCT 919.1513    
    QMUNI8 ZMUNI3_PCT 1046.5622   
    QMUNI8 ZMUNI4_PCT 907.898     
    QMUNI8 ZMUNI5_PCT  -696.373   
    QMUNI8 ZMUNI6_PCT  -464.4394  
    QMUNI8 ZMUNI7_PCT 2552.0324   
    QMUNI8 ZMUNI8_PCT 34025.9552  
    QMUNI8 ZMUNI9_PCT 1509.8572   
    QMUNI9 OBJROW 1.          
    QMUNI9 ZMUNI1_PCT 430.4886    
    QMUNI9 ZMUNI2_PCT 803.7567    
    QMUNI9 ZMUNI3_PCT 539.9704    
    QMUNI9 ZMUNI4_PCT 498.1995    
    QMUNI9 ZMUNI5_PCT  -62.1796   
    QMUNI9 ZMUNI6_PCT 17.7383     
    QMUNI9 ZMUNI7_PCT 867.8436    
    QMUNI9 ZMUNI8_PCT 1394.2719   
    QMUNI9 ZMUNI9_PCT 37619.4001  
RHS
    RHS ZMUNI1_PCT  -1.63600766
    RHS ZMUNI2_PCT 1.7499081202
    RHS ZMUNI3_PCT 0.3894975138
    RHS ZMUNI4_PCT 14.44836498 
    RHS ZMUNI5_PCT 3.6485585997
    RHS ZMUNI6_PCT 0.0661319158
    RHS ZMUNI7_PCT 0.7320331041
    RHS ZMUNI8_PCT 2.3105655684
    RHS ZMUNI9_PCT 5.1581661478
BOUNDS
 LO BOUND QMUNI1 -0.000606549
 UP BOUND QMUNI1      1.1e+10
 LO BOUND QMUNI2 -0.000376635
 UP BOUND QMUNI2      1.1e+10
 LO BOUND QMUNI3 -0.000477584
 UP BOUND QMUNI3      1.1e+10
 LO BOUND QMUNI4  -8.31533e-5
 UP BOUND QMUNI4      1.1e+10
 LO BOUND QMUNI5 -0.000207601
 UP BOUND QMUNI5      1.1e+10
 LO BOUND QMUNI6 -0.000407958
 UP BOUND QMUNI6      1.1e+10
 LO BOUND QMUNI7  -3.36544e-5
 UP BOUND QMUNI7      1.1e+10
 LO BOUND QMUNI8 -0.000141517
 UP BOUND QMUNI8      1.1e+10
 LO BOUND QMUNI9  -4.69103e-5
 UP BOUND QMUNI9      1.1e+10
ENDATA
